proyfinal/src/viki/013/experimentInOfficeAgust.take6.output/ddf6331e-e06f-473c-9690-391343d2e8c2.als.out
Reading from standard input... Use '--help' for help.
============================[ Problem Statistics ]=============================
|                                                                             |
|  Number of variables:         87638                                         |
|  Number of clauses:          161767                                         |
|  Parse time:                   0.04 s                                       |
|                                                                             |
============================[ Search Statistics ]==============================
| Conflicts |          ORIGINAL         |          LEARNT          | Progress |
|           |    Vars  Clauses Literals |    Limit  Clauses Lit/Cl |          |
===============================================================================
|       100 |   62869   107171   267211 |    39296      100     10 | 28.263 % |
|       250 |   62869   107171   267211 |    43225      250     31 | 28.263 % |
|       475 |   62869   107171   267211 |    47548      475     47 | 28.263 % |
|       812 |   62777   107138   267127 |    52303      806     45 | 28.368 % |
|      1318 |   62777   106829   266306 |    57533     1273     81 | 28.368 % |
|      2077 |   62373   106685   265987 |    63286     2016     74 | 28.829 % |
|      3216 |   62373   105180   262395 |    69615     3129     78 | 28.829 % |
|      4924 |   62075   103980   259526 |    76576     4801     75 | 29.169 % |
|      7486 |   61953   103868   259231 |    84234     7359     75 | 29.308 % |
|     11330 |   61953   103532   258447 |    92657    11172     73 | 29.308 % |
|     17096 |   61807   102929   257021 |   101923    16505     75 | 29.475 % |
===============================================================================
restarts              : 77
conflicts             : 21341          (8047 /sec)
decisions             : 65272          (0.00 % random) (24611 /sec)
propagations          : 25053101       (9446400 /sec)
conflict literals     : 1507974        (51.99 % deleted)
Memory used           : 29.26 MB
CPU time              : 2.65213 s

UNSATISFIABLE
